\ Model Ore Mixing Problem
\ LP format - for model browsing. Use MPS format to capture full model detail.
Minimize
  23.54048964218456 a_max_00 + 23.99232245681382 a_max_01
   + 53.67686527106819 a_max_02 + 282.4858757062142 a_max_03
   + 1176.470588235294 a_max_10 + 1162.790697674419 a_max_11
   + 2127.659574468085 a_max_12 + 4166.666666666667 a_max_13
   + 2040.816326530612 a_max_20 + 5882.352941176471 a_max_21
   + 6250 a_max_22 + 7142.857142857142 a_max_23 + 50000 a_max_30
   + 5263.157894736843 a_max_31 + 33333.33333333331 a_max_32
   + 3846.153846153846 a_max_33 + 7142.857142857142 a_max_40
   + 1470.588235294118 a_max_41 + 1e+09 a_max_42 + 12500 a_max_43
   + 813.0081300813008 a_max_50 + 3225.806451612907 a_max_51
   + 1562.5 a_max_52 + 666.6666666666666 a_max_53
   + 396.8253968253964 a_min_00 + 301.2048192771084 a_min_01
   + 37.92188092529389 a_min_02 + 24.1196333815726 a_min_03
   + 1538.461538461538 a_min_10 + 1562.5 a_min_11
   + 970.8737864077671 a_min_12 + 793.6507936507936 a_min_13
   + 100000 a_min_20 + 3030.30303030303 a_min_21
   + 2941.176470588235 a_min_22 + 2777.777777777778 a_min_23
   + 2083.333333333333 a_min_30 + 3225.806451612903 a_min_31
   + 2127.659574468085 a_min_32 + 4166.666666666667 a_min_33
   + 1162.790697674419 a_min_40 + 3125 a_min_41 + 1000 a_min_42
   + 1086.95652173913 a_min_43 + 3703.703703703703 a_min_50
   + 840.3361344537811 a_min_51 + 1162.790697674418 a_min_52
   + 1e+09 a_min_53 + 0.3968253968253964 b_min_00
   + 0.3012048192771084 b_min_01 + 0.0536768652710682 b_min_02
   + 0.2824858757062142 b_min_03 + 1.538461538461538 b_min_10
   + 1.5625 b_min_11 + 2.127659574468085 b_min_12
   + 4.166666666666667 b_min_13 + 100 b_min_20 + 5.882352941176471 b_min_21
   + 6.25 b_min_22 + 7.142857142857142 b_min_23 + 50 b_min_30
   + 5.263157894736842 b_min_31 + 33.33333333333331 b_min_32
   + 4.166666666666667 b_min_33 + 7.142857142857142 b_min_40
   + 3.125 b_min_41 + 1e+06 b_min_42 + 12.5 b_min_43
   + 3.703703703703703 b_min_50 + 3.225806451612907 b_min_51
   + 1.5625 b_min_52 + 1e+06 b_min_53 + 0.3968253968253964 b_max_00
   + 0.3012048192771084 b_max_01 + 0.0536768652710682 b_max_02
   + 0.2824858757062142 b_max_03 + 1.538461538461538 b_max_10
   + 1.5625 b_max_11 + 2.127659574468085 b_max_12
   + 4.166666666666667 b_max_13 + 100 b_max_20 + 5.882352941176471 b_max_21
   + 6.25 b_max_22 + 7.142857142857142 b_max_23 + 50 b_max_30
   + 5.263157894736842 b_max_31 + 33.33333333333331 b_max_32
   + 4.166666666666667 b_max_33 + 7.142857142857142 b_max_40
   + 3.125 b_max_41 + 1e+06 b_max_42 + 12.5 b_max_43
   + 3.703703703703703 b_max_50 + 3.225806451612907 b_max_51
   + 1.5625 b_max_52 + 1e+06 b_max_53
Subject To
 capacity_constr_0: x_00 + x_01 + x_02 + x_03 <= 1238
 capacity_constr_1: x_10 + x_11 + x_12 + x_13 <= 1194.1
 capacity_constr_2: x_20 + x_21 + x_22 + x_23 <= 1191.3
 capacity_constr_3: x_30 + x_31 + x_32 + x_33 <= 1147
 capacity_constr_4: x_40 + x_41 + x_42 + x_43 <= 1370.5
 capacity_constr_5: x_50 + x_51 + x_52 + x_53 <= 1059.2
 demand_constr_0: x_00 + x_10 + x_20 + x_30 + x_40 + x_50 = 1384.9
 min_quality_constr_00: 2.19 x_00 + 4.69 x_10 - 1.96 x_20 - 8.13 x_30
   + 24.96 x_40 + 15.95 x_50 + 1384.9 a_min_00 >= -0
 max_quality_constr_00: - 42.81 x_00 - 40.31 x_10 - 46.96 x_20 - 53.13 x_30
   - 20.04 x_40 - 29.05 x_50 - 1384.9 a_max_00 <= -0
 goal_quality_constr_00: - 0.33 x_00 + 2.17 x_10 - 4.48 x_20 - 10.65 x_30
   + 22.44 x_40 + 13.43 x_50 + b_min_00 - b_max_00 = -0
 min_quality_constr_10: 0.75 x_00 + 0.15 x_10 + 1.21 x_20 + 0.15 x_30
   + 1.7 x_40 + 0.36 x_50 + 1384.9 a_min_10 >= -0
 max_quality_constr_10: - 0.75 x_00 - 1.35 x_10 - 0.29 x_20 - 1.35 x_30
   + 0.2 x_40 - 1.14 x_50 - 1384.9 a_max_10 <= -0
 goal_quality_constr_10: 0.1 x_00 - 0.5 x_10 + 0.56 x_20 - 0.5 x_30
   + 1.05 x_40 - 0.29 x_50 + b_min_10 - b_max_10 = -0
 min_quality_constr_20: 5.3 x_00 + 4 x_10 + 4.24 x_20 + 4.2 x_30 + 2.5 x_40
   + 3.45 x_50 + 1384.9 a_min_20 >= -0
 max_quality_constr_20: 4.8 x_00 + 3.5 x_10 + 3.74 x_20 + 3.7 x_30 + 2 x_40
   + 2.95 x_50 - 1384.9 a_max_20 <= -0
 goal_quality_constr_20: 5.29 x_00 + 3.99 x_10 + 4.23 x_20 + 4.19 x_30
   + 2.49 x_40 + 3.44 x_50 + b_min_20 - b_max_20 = -0
 min_quality_constr_30: 0.72 x_00 + 1.21 x_10 + 1.12 x_20 + 0.85 x_30
   + 2.32 x_40 + 3.77 x_50 + 1384.9 a_min_30 >= -0
 max_quality_constr_30: 0.22 x_00 + 0.71 x_10 + 0.62 x_20 + 0.35 x_30
   + 1.82 x_40 + 3.27 x_50 - 1384.9 a_max_30 <= -0
 goal_quality_constr_30: 0.24 x_00 + 0.73 x_10 + 0.64 x_20 + 0.37 x_30
   + 1.84 x_40 + 3.29 x_50 + b_min_30 - b_max_30 = -0
 min_quality_constr_40: 0.13 x_00 + 0.07 x_10 + 1.17 x_20 + 0.37 x_30
   + 0.04 x_40 + 0.31 x_50 + 1384.9 a_min_40 >= -0
 max_quality_constr_40: - 0.87 x_00 - 0.93 x_10 + 0.17 x_20 - 0.63 x_30
   - 0.96 x_40 - 0.69 x_50 - 1384.9 a_max_40 <= -0
 goal_quality_constr_40: - 0.73 x_00 - 0.79 x_10 + 0.31 x_20 - 0.49 x_30
   - 0.82 x_40 - 0.55 x_50 + b_min_40 - b_max_40 = -0
 min_quality_constr_50: 1.49 x_00 + 0.3 x_10 - 0.1 x_20 + 1.23 x_30
   + 0.78 x_40 + 0.01 x_50 + 1384.9 a_min_50 >= -0
 max_quality_constr_50: - 0.01 x_00 - 1.2 x_10 - 1.6 x_20 - 0.27 x_30
   - 0.72 x_40 - 1.49 x_50 - 1384.9 a_max_50 <= -0
 goal_quality_constr_50: 1.22 x_00 + 0.03 x_10 - 0.37 x_20 + 0.96 x_30
   + 0.51 x_40 - 0.26 x_50 + b_min_50 - b_max_50 = -0
 demand_constr_1: x_01 + x_11 + x_21 + x_31 + x_41 + x_51 = 1251.6
 min_quality_constr_01: 2.19 x_01 + 4.69 x_11 - 1.96 x_21 - 8.13 x_31
   + 24.96 x_41 + 15.95 x_51 + 1251.6 a_min_01 >= -0
 max_quality_constr_01: - 42.81 x_01 - 40.31 x_11 - 46.96 x_21 - 53.13 x_31
   - 20.04 x_41 - 29.05 x_51 - 1251.6 a_max_01 <= -0
 goal_quality_constr_01: - 1.13 x_01 + 1.37 x_11 - 5.28 x_21 - 11.45 x_31
   + 21.64 x_41 + 12.63 x_51 + b_min_01 - b_max_01 = -0
 min_quality_constr_11: 0.75 x_01 + 0.15 x_11 + 1.21 x_21 + 0.15 x_31
   + 1.7 x_41 + 0.36 x_51 + 1251.6 a_min_11 >= -0
 max_quality_constr_11: - 0.75 x_01 - 1.35 x_11 - 0.29 x_21 - 1.35 x_31
   + 0.2 x_41 - 1.14 x_51 - 1251.6 a_max_11 <= -0
 goal_quality_constr_11: 0.11 x_01 - 0.49 x_11 + 0.57 x_21 - 0.49 x_31
   + 1.06 x_41 - 0.28 x_51 + b_min_11 - b_max_11 = -0
 min_quality_constr_21: 5.3 x_01 + 4 x_11 + 4.24 x_21 + 4.2 x_31 + 2.5 x_41
   + 3.45 x_51 + 1251.6 a_min_21 >= -0
 max_quality_constr_21: 4.8 x_01 + 3.5 x_11 + 3.74 x_21 + 3.7 x_31 + 2 x_41
   + 2.95 x_51 - 1251.6 a_max_21 <= -0
 goal_quality_constr_21: 4.97 x_01 + 3.67 x_11 + 3.91 x_21 + 3.87 x_31
   + 2.17 x_41 + 3.12 x_51 + b_min_21 - b_max_21 = -0
 min_quality_constr_31: 0.72 x_01 + 1.21 x_11 + 1.12 x_21 + 0.85 x_31
   + 2.32 x_41 + 3.77 x_51 + 1251.6 a_min_31 >= -0
 max_quality_constr_31: 0.22 x_01 + 0.71 x_11 + 0.62 x_21 + 0.35 x_31
   + 1.82 x_41 + 3.27 x_51 - 1251.6 a_max_31 <= -0
 goal_quality_constr_31: 0.41 x_01 + 0.9 x_11 + 0.81 x_21 + 0.54 x_31
   + 2.01 x_41 + 3.46 x_51 + b_min_31 - b_max_31 = -0
 min_quality_constr_41: 0.13 x_01 + 0.07 x_11 + 1.17 x_21 + 0.37 x_31
   + 0.04 x_41 + 0.31 x_51 + 1251.6 a_min_41 >= -0
 max_quality_constr_41: - 0.87 x_01 - 0.93 x_11 + 0.17 x_21 - 0.63 x_31
   - 0.96 x_41 - 0.69 x_51 - 1251.6 a_max_41 <= -0
 goal_quality_constr_41: - 0.19 x_01 - 0.25 x_11 + 0.85 x_21 + 0.05 x_31
   - 0.28 x_41 - 0.01 x_51 + b_min_41 - b_max_41 = -0
 min_quality_constr_51: 1.49 x_01 + 0.3 x_11 - 0.1 x_21 + 1.23 x_31
   + 0.78 x_41 + 0.01 x_51 + 1251.6 a_min_51 >= -0
 max_quality_constr_51: - 0.01 x_01 - 1.2 x_11 - 1.6 x_21 - 0.27 x_31
   - 0.72 x_41 - 1.49 x_51 - 1251.6 a_max_51 <= -0
 goal_quality_constr_51: 0.3 x_01 - 0.89 x_11 - 1.29 x_21 + 0.04 x_31
   - 0.41 x_41 - 1.18 x_51 + b_min_51 - b_max_51 = -0
 demand_constr_2: x_02 + x_12 + x_22 + x_32 + x_42 + x_52 = 1277.5
 min_quality_constr_02: 2.19 x_02 + 4.69 x_12 - 1.96 x_22 - 8.13 x_32
   + 24.96 x_42 + 15.95 x_52 + 1277.5 a_min_02 >= -0
 max_quality_constr_02: - 42.81 x_02 - 40.31 x_12 - 46.96 x_22 - 53.13 x_32
   - 20.04 x_42 - 29.05 x_52 - 1277.5 a_max_02 <= -0
 goal_quality_constr_02: - 24.18 x_02 - 21.68 x_12 - 28.33 x_22 - 34.5 x_32
   - 1.41 x_42 - 10.42 x_52 + b_min_02 - b_max_02 = -0
 min_quality_constr_12: 0.75 x_02 + 0.15 x_12 + 1.21 x_22 + 0.15 x_32
   + 1.7 x_42 + 0.36 x_52 + 1277.5 a_min_12 >= -0
 max_quality_constr_12: - 0.75 x_02 - 1.35 x_12 - 0.29 x_22 - 1.35 x_32
   + 0.2 x_42 - 1.14 x_52 - 1277.5 a_max_12 <= -0
 goal_quality_constr_12: - 0.28 x_02 - 0.88 x_12 + 0.18 x_22 - 0.88 x_32
   + 0.67 x_42 - 0.67 x_52 + b_min_12 - b_max_12 = -0
 min_quality_constr_22: 5.3 x_02 + 4 x_12 + 4.24 x_22 + 4.2 x_32 + 2.5 x_42
   + 3.45 x_52 + 1277.5 a_min_22 >= -0
 max_quality_constr_22: 4.8 x_02 + 3.5 x_12 + 3.74 x_22 + 3.7 x_32 + 2 x_42
   + 2.95 x_52 - 1277.5 a_max_22 <= -0
 goal_quality_constr_22: 4.96 x_02 + 3.66 x_12 + 3.9 x_22 + 3.86 x_32
   + 2.16 x_42 + 3.11 x_52 + b_min_22 - b_max_22 = -0
 min_quality_constr_32: 0.72 x_02 + 1.21 x_12 + 1.12 x_22 + 0.85 x_32
   + 2.32 x_42 + 3.77 x_52 + 1277.5 a_min_32 >= -0
 max_quality_constr_32: 0.22 x_02 + 0.71 x_12 + 0.62 x_22 + 0.35 x_32
   + 1.82 x_42 + 3.27 x_52 - 1277.5 a_max_32 <= -0
 goal_quality_constr_32: 0.25 x_02 + 0.74 x_12 + 0.65 x_22 + 0.38 x_32
   + 1.85 x_42 + 3.3 x_52 + b_min_32 - b_max_32 = -0
 min_quality_constr_42: 0.13 x_02 + 0.07 x_12 + 1.17 x_22 + 0.37 x_32
   + 0.04 x_42 + 0.31 x_52 + 1277.5 a_min_42 >= -0
 max_quality_constr_42: - 0.87 x_02 - 0.93 x_12 + 0.17 x_22 - 0.63 x_32
   - 0.96 x_42 - 0.69 x_52 - 1277.5 a_max_42 <= -0
 goal_quality_constr_42: - 0.87 x_02 - 0.93 x_12 + 0.17 x_22 - 0.63 x_32
   - 0.96 x_42 - 0.69 x_52 + b_min_42 - b_max_42 = -0
 min_quality_constr_52: 1.49 x_02 + 0.3 x_12 - 0.1 x_22 + 1.23 x_32
   + 0.78 x_42 + 0.01 x_52 + 1277.5 a_min_52 >= -0
 max_quality_constr_52: - 0.01 x_02 - 1.2 x_12 - 1.6 x_22 - 0.27 x_32
   - 0.72 x_42 - 1.49 x_52 - 1277.5 a_max_52 <= -0
 goal_quality_constr_52: 0.63 x_02 - 0.56 x_12 - 0.96 x_22 + 0.37 x_32
   - 0.08 x_42 - 0.85 x_52 + b_min_52 - b_max_52 = -0
 demand_constr_3: x_03 + x_13 + x_23 + x_33 + x_43 + x_53 = 1180
 min_quality_constr_03: 2.19 x_03 + 4.69 x_13 - 1.96 x_23 - 8.13 x_33
   + 24.96 x_43 + 15.95 x_53 + 1180 a_min_03 >= -0
 max_quality_constr_03: - 42.81 x_03 - 40.31 x_13 - 46.96 x_23 - 53.13 x_33
   - 20.04 x_43 - 29.05 x_53 - 1180 a_max_03 <= -0
 goal_quality_constr_03: - 39.27 x_03 - 36.77 x_13 - 43.42 x_23
   - 49.59 x_33 - 16.5 x_43 - 25.51 x_53 + b_min_03 - b_max_03 = -0
 min_quality_constr_13: 0.75 x_03 + 0.15 x_13 + 1.21 x_23 + 0.15 x_33
   + 1.7 x_43 + 0.36 x_53 + 1180 a_min_13 >= -0
 max_quality_constr_13: - 0.75 x_03 - 1.35 x_13 - 0.29 x_23 - 1.35 x_33
   + 0.2 x_43 - 1.14 x_53 - 1180 a_max_13 <= -0
 goal_quality_constr_13: - 0.51 x_03 - 1.11 x_13 - 0.05 x_23 - 1.11 x_33
   + 0.44 x_43 - 0.9 x_53 + b_min_13 - b_max_13 = -0
 min_quality_constr_23: 5.3 x_03 + 4 x_13 + 4.24 x_23 + 4.2 x_33 + 2.5 x_43
   + 3.45 x_53 + 1180 a_min_23 >= -0
 max_quality_constr_23: 4.8 x_03 + 3.5 x_13 + 3.74 x_23 + 3.7 x_33 + 2 x_43
   + 2.95 x_53 - 1180 a_max_23 <= -0
 goal_quality_constr_23: 4.94 x_03 + 3.64 x_13 + 3.88 x_23 + 3.84 x_33
   + 2.14 x_43 + 3.09 x_53 + b_min_23 - b_max_23 = -0
 min_quality_constr_33: 0.72 x_03 + 1.21 x_13 + 1.12 x_23 + 0.85 x_33
   + 2.32 x_43 + 3.77 x_53 + 1180 a_min_33 >= -0
 max_quality_constr_33: 0.22 x_03 + 0.71 x_13 + 0.62 x_23 + 0.35 x_33
   + 1.82 x_43 + 3.27 x_53 - 1180 a_max_33 <= -0
 goal_quality_constr_33: 0.48 x_03 + 0.97 x_13 + 0.88 x_23 + 0.61 x_33
   + 2.08 x_43 + 3.53 x_53 + b_min_33 - b_max_33 = -0
 min_quality_constr_43: 0.13 x_03 + 0.07 x_13 + 1.17 x_23 + 0.37 x_33
   + 0.04 x_43 + 0.31 x_53 + 1180 a_min_43 >= -0
 max_quality_constr_43: - 0.87 x_03 - 0.93 x_13 + 0.17 x_23 - 0.63 x_33
   - 0.96 x_43 - 0.69 x_53 - 1180 a_max_43 <= -0
 goal_quality_constr_43: - 0.79 x_03 - 0.85 x_13 + 0.25 x_23 - 0.55 x_33
   - 0.88 x_43 - 0.61 x_53 + b_min_43 - b_max_43 = -0
 min_quality_constr_53: 1.49 x_03 + 0.3 x_13 - 0.1 x_23 + 1.23 x_33
   + 0.78 x_43 + 0.01 x_53 + 1180 a_min_53 >= -0
 max_quality_constr_53: - 0.01 x_03 - 1.2 x_13 - 1.6 x_23 - 0.27 x_33
   - 0.72 x_43 - 1.49 x_53 - 1180 a_max_53 <= -0
 goal_quality_constr_53: 1.49 x_03 + 0.3 x_13 - 0.1 x_23 + 1.23 x_33
   + 0.78 x_43 + 0.01 x_53 + b_min_53 - b_max_53 = -0
Bounds
End
